
Gurobi 12.0.1 (win64, C++) logging started Thu Apr 17 14:20:58 2025

Set parameter Username
Set parameter LicenseID to value 2618661
Academic license - for non-commercial use only - expires 2026-02-05
Set parameter Threads to value 8
Set parameter LazyConstraints to value 1
Set parameter PreCrush to value 1
Set parameter Seed to value 10
Set parameter Cuts to value -1
Set parameter TimeLimit to value 28800
Set parameter NumericFocus to value 0
Set parameter SolutionLimit to value 10000
Gurobi Optimizer version 12.0.1 build v12.0.1rc0 (win64 - Windows Server 2022.0 (20348.2))

CPU model: AMD EPYC 7513 32-Core Processor, instruction set [SSE2|AVX|AVX2]
Thread count: 18 physical cores, 18 logical processors, using up to 8 threads

Non-default parameters:
SolutionLimit  10000
TimeLimit  28800
PreCrush  1
Seed  10
Threads  8
LazyConstraints  1

Optimize a model with 233 rows, 441 columns and 1262 nonzeros
Model fingerprint: 0x9ddd690b
Variable types: 0 continuous, 441 integer (441 binary)
Coefficient statistics:
  Matrix range     [1e+00, 1e+00]
  Objective range  [6e+00, 6e+01]
  Bounds range     [1e+00, 1e+00]
  RHS range        [1e+00, 6e+00]

User MIP start produced solution with objective 493.362 (0.00s)
Loaded user MIP start with objective 493.362

Presolve removed 9 rows and 35 columns
Presolve time: 0.00s
Presolved: 224 rows, 406 columns, 1159 nonzeros
Variable types: 0 continuous, 406 integer (406 binary)

Root relaxation: objective 3.490889e+02, 76 iterations, 0.00 seconds (0.00 work units)

    Nodes    |    Current Node    |     Objective Bounds      |     Work
 Expl Unexpl |  Obj  Depth IntInf | Incumbent    BestBd   Gap | It/Node Time

     0     0  349.08891    0    -  493.36173  349.08891  29.2%     -    0s
     0     0  361.48864    0    -  493.36173  361.48864  26.7%     -    0s
     0     0  363.62120    0    -  493.36173  363.62120  26.3%     -    0s
     0     0  371.76545    0   16  493.36173  371.76545  24.6%     -    0s
     0     0  375.19746    0    -  493.36173  375.19746  24.0%     -    0s
     0     0  392.57821    0    6  493.36173  392.57821  20.4%     -    0s
     0     0  395.23733    0   28  493.36173  395.23733  19.9%     -    0s
     0     0  402.19863    0   29  493.36173  402.19863  18.5%     -    0s
     0     0  405.58909    0   40  493.36173  405.58909  17.8%     -    0s
     0     0  411.95424    0   43  493.36173  411.95424  16.5%     -    0s
     0     0  412.58286    0   50  493.36173  412.58286  16.4%     -    0s
     0     0  412.58286    0   51  493.36173  412.58286  16.4%     -    0s
     0     2  412.58286    0   51  493.36173  412.58286  16.4%     -    0s
*   22    19               4     430.8846754  426.15922  1.10%  69.4    1s

Cutting planes:
  MIR: 3
  Lazy constraints: 1257

Explored 66 nodes (2849 simplex iterations) in 2.13 seconds (0.24 work units)
Thread count was 8 (of 18 available processors)

Solution count 2: 430.885 493.362 

Optimal solution found (tolerance 1.00e-04)
Best objective 4.308846754242e+02, best bound 4.308846754242e+02, gap 0.0000%

User-callback calls 452, time in user-callback 1.73 sec
### START EXACT APPROACH ###
ProblemVariant: 2
### START PREPROCESSING ###
## Start infeasible path procedure ## 
Deleted arcs: 14
Infeasible tail paths: 1
Infeasible 2-node combinations: 7
## Start extended infeasible path procedure ##
Deleted arcs: 14
Infeasible tail paths: 1
Infeasible 2-node combinations: 7
## Start start solution procedure ##
Start solution with 6 Vehicles and total costs 493.362 in 0.0404689 s.
### END PREPROCESSING ###
Route 0 0-1-2-0 : weight util 0.827586 | volume util 0.277467 | feasible with packing heuristic | feasible with CP model
Route 1 0-6-19-11-20-5-0 : weight util 1.000000 | volume util 0.541422 | infeasible with packing heuristic | feasible with CP model
Route 2 0-7-9-3-4-0 : weight util 0.965517 | volume util 0.385956 | feasible with packing heuristic | feasible with CP model
Route 3 0-13-14-15-0 : weight util 0.931034 | volume util 0.663778 | feasible with packing heuristic | feasible with CP model
Route 4 0-16-18-10-12-0 : weight util 0.982759 | volume util 0.250267 | feasible with packing heuristic | feasible with CP model
Route 5 0-17-8-0 : weight util 0.965517 | volume util 0.092444 | feasible with packing heuristic | feasible with CP model
